 vasp.5.4.4.18Apr17-6-g9f103f2a35 (build Jun 12 2018 15:56:12) complex

 executed on             LinuxIFC date 2019.10.25  20:31:24

 INCAR:
 POTCAR:    PAW_PBE Ba_sv 06Sep2000
 POTCAR:    PAW_PBE Co_pv 23Apr2009
 POTCAR:    PAW_PBE O 08Apr2002
 POTCAR:    PAW_PBE Ba_sv 06Sep2000
   VRHFIN =Ba: 5s5p6s

   TITEL  = PAW_PBE Ba_sv 06Sep2000
   POMASS =  137.327; ZVAL   =   10.000    mass and valenz
   ENMAX  =  187.181; ENMIN  =  140.386 eV

 POTCAR:    PAW_PBE Co_pv 23Apr2009
   VRHFIN =Co: 3pd7s1

   TITEL  = PAW_PBE Co_pv 23Apr2009
   POMASS =   58.933; ZVAL   =   15.000    mass and valenz
   ENMAX  =  271.042; ENMIN  =  203.281 eV

 POTCAR:    PAW_PBE O 08Apr2002
   VRHFIN =O: s2p4

   TITEL  = PAW_PBE O 08Apr2002
   POMASS =   16.000; ZVAL   =    6.000    mass and valenz
   ENMAX  =  400.000; ENMIN  =  300.000 eV

 Optimization of the real space projectors (new method)

 maximal supplied QI-value         = 13.42
 optimisation between [QCUT,QGAM] = [ 11.67, 23.35] = [ 38.16,152.62] Ry
 Optimized for a Real-space Cutoff    1.68 Angstroem

   l    n(q)    QCUT    max X(q) W(low)/X(q) W(high)/X(q)  e(spline)
   0     12    11.673    13.244    0.27E-04    0.53E-05    0.55E-07
   0     12    11.673    14.240    0.39E-04    0.74E-05    0.11E-06
   1     11    11.673     4.828    0.65E-05    0.14E-04    0.51E-07
   1     11    11.673     3.934    0.16E-04    0.58E-04    0.38E-06
   2     11    11.673    87.714    0.23E-03    0.16E-03    0.84E-06
   2     11    11.673    59.874    0.22E-03    0.15E-03    0.81E-06
 Optimization of the real space projectors (new method)

[...]

   l    n(q)    QCUT    max X(q) W(low)/X(q) W(high)/X(q)  e(spline)
   1      9    11.539     4.946    0.12E-03    0.47E-03    0.20E-06
   1      9    11.539     5.991    0.19E-03    0.70E-03    0.29E-06
   2      8    11.539    46.947    0.22E-03    0.40E-03    0.23E-06
   2      8    11.539    42.928    0.24E-03    0.42E-03    0.23E-06
   0      9    11.539    68.324    0.11E-03    0.13E-03    0.74E-07
   0      9    11.539    36.926    0.10E-03    0.12E-03    0.70E-07
 Optimization of the real space projectors (new method)

 maximal supplied QI-value         = 24.76
 optimisation between [QCUT,QGAM] = [ 11.64, 23.27] = [ 37.91,151.63] Ry
 Optimized for a Real-space Cutoff    1.14 Angstroem

   l    n(q)    QCUT    max X(q) W(low)/X(q) W(high)/X(q)  e(spline)
   0      8    11.635    20.381    0.10E-03    0.33E-03    0.24E-06
   0      8    11.635    15.268    0.11E-03    0.35E-03    0.26E-06
   1      7    11.635     5.964    0.24E-03    0.31E-03    0.30E-06
   1      7    11.635     5.382    0.22E-03    0.25E-03    0.26E-06
  PAW_PBE Ba_sv 06Sep2000               :
  PAW_PBE Co_pv 23Apr2009               :
  PAW_PBE O 08Apr2002                   :

 POSCAR: Ba1 Co1 O3
  positions in direct lattice
  velocities in cartesian coordinates

 METAGGA = SCAN     LMAXTAU =  6    LMIXTAU =  F

 ion  position               nearest neighbor table
   1  0.000  0.000  0.009-   3 2.79   3 2.79   3 2.79   3 2.79   4 2.79   5 2.79   5 2.79   4 2.79
                             5 2.80   4 2.80   5 2.80   4 2.80   2 3.40   2 3.40   2 3.40   2 3.40
   2  0.500  0.500  0.502-   3 1.94   4 1.97   5 1.97   5 1.97   4 1.97   3 2.03   1 3.40   1 3.40
                             1 3.40   1 3.40   1 3.43   1 3.43   1 3.43   1 3.43
   3  0.500  0.500  0.013-   2 1.94   2 2.03   1 2.79   1 2.79   1 2.79   1 2.79
   4  0.000  0.500  0.510-   2 1.97   2 1.97   1 2.79   1 2.79   1 2.80   1 2.80
   5  0.500  0.000  0.510-   2 1.97   2 1.97   1 2.79   1 2.79   1 2.80   1 2.80

  LATTYP: Found a simple tetragonal cell.
 ALAT       =     3.9387661115
 C/A-ratio  =     1.0062706704

  Lattice vectors:

 A1 = (   3.9387661115,   0.0000000000,   0.0000000000)
 A2 = (   0.0000000000,   3.9387661115,   0.0000000000)
 A3 = (   0.0000000000,   0.0000000000,   3.9634648155)

Analysis of symmetry for initial positions (statically):
 Subroutine PRICEL returns:
 Original cell was already a primitive cell.

 Routine SETGRP: Setting up the symmetry group for a
 simple tetragonal supercell.

 Subroutine GETGRP returns: Found  8 space group operations
 (whereof  8 operations were pure point group operations)
 out of a pool of 16 trial point group operations.

The static configuration has the point symmetry C_4v.

Analysis of symmetry for dynamics (positions and initial velocities):
 Subroutine PRICEL returns:
 Original cell was already a primitive cell.

[...]

The dynamic configuration has the point symmetry C_4v.

Analysis of structural, dynamic, and magnetic symmetry:
 Subroutine PRICEL returns:
 Original cell was already a primitive cell.

 Routine SETGRP: Setting up the symmetry group for a
 simple tetragonal supercell.

 Subroutine GETGRP returns: Found  8 space group operations
 (whereof  8 operations were pure point group operations)
 out of a pool of 16 trial point group operations.

The magnetic configuration has the point symmetry C_4v.

 Subroutine INISYM returns: Found  8 space group operations
 (whereof  8 operations are pure point group operations),
 and found     1 'primitive' translations

 KPOINTS: Automatic kpoint scheme

Automatic generation of k-mesh.
Space group operators:
 irot       det(A)        alpha          n_x          n_y          n_z        tau_x        tau_y        tau_z
    1     1.000000     0.000000     1.000000     0.000000     0.000000     0.000000     0.000000     0.000000
    2     1.000000    90.000000     0.000000     0.000000    -1.000000     0.000000     0.000000     0.000000
    3     1.000000   180.000000     0.000000     0.000000     1.000000     0.000000     0.000000     0.000000
    4     1.000000    90.000000     0.000000     0.000000     1.000000     0.000000     0.000000     0.000000
    5    -1.000000   180.000000     0.000000     1.000000     0.000000     0.000000     0.000000     0.000000
    6    -1.000000   180.000000     0.707107     0.707107     0.000000     0.000000     0.000000     0.000000
    7    -1.000000   180.000000     1.000000     0.000000     0.000000     0.000000     0.000000     0.000000
    8    -1.000000   180.000000     0.707107    -0.707107     0.000000     0.000000     0.000000     0.000000

 Subroutine IBZKPT returns following result:

 Found    196 irreducible k-points:

 Following reciprocal coordinates:
            Coordinates               Weight
  0.000000  0.000000  0.000000      1.000000
  0.076923  0.000000  0.000000      4.000000
  0.153846  0.000000  0.000000      4.000000
  0.230769  0.000000  0.000000      4.000000
  0.307692  0.000000  0.000000      4.000000
  0.384615  0.000000  0.000000      4.000000
  0.461538  0.000000  0.000000      4.000000
  0.076923  0.076923  0.000000      4.000000
  0.153846  0.076923  0.000000      8.000000
  0.230769  0.076923  0.000000      8.000000
  0.307692  0.076923  0.000000      8.000000
  0.384615  0.076923  0.000000      8.000000
  0.461538  0.076923  0.000000      8.000000
  0.153846  0.153846  0.000000      4.000000
  0.230769  0.153846  0.000000      8.000000
  0.307692  0.153846  0.000000      8.000000
  0.384615  0.153846  0.000000      8.000000
  0.461538  0.153846  0.000000      8.000000
  0.230769  0.230769  0.000000      4.000000
  0.307692  0.230769  0.000000      8.000000
  0.384615  0.230769  0.000000      8.000000
  0.461538  0.230769  0.000000      8.000000
  0.307692  0.307692  0.000000      4.000000
  0.384615  0.307692  0.000000      8.000000
  0.461538  0.307692  0.000000      8.000000
  0.384615  0.384615  0.000000      4.000000
  0.461538  0.384615  0.000000      8.000000
  0.461538  0.461538  0.000000      4.000000
  0.000000  0.000000  0.076923      2.000000
  0.076923  0.000000  0.076923      8.000000
  0.153846  0.000000  0.076923      8.000000
  0.230769  0.000000  0.076923      8.000000
  0.307692  0.000000  0.076923      8.000000
  0.384615  0.000000  0.076923      8.000000
  0.461538  0.000000  0.076923      8.000000
  0.076923  0.076923  0.076923      8.000000
  0.153846  0.076923  0.076923     16.000000
  0.230769  0.076923  0.076923     16.000000
  0.307692  0.076923  0.076923     16.000000
  0.384615  0.076923  0.076923     16.000000
  0.461538  0.076923  0.076923     16.000000
  0.153846  0.153846  0.076923      8.000000
  0.230769  0.153846  0.076923     16.000000
  0.307692  0.153846  0.076923     16.000000
  0.384615  0.153846  0.076923     16.000000
  0.461538  0.153846  0.076923     16.000000
  0.230769  0.230769  0.076923      8.000000
  0.307692  0.230769  0.076923     16.000000
  0.384615  0.230769  0.076923     16.000000
  0.461538  0.230769  0.076923     16.000000
  0.307692  0.307692  0.076923      8.000000
  0.384615  0.307692  0.076923     16.000000
  0.461538  0.307692  0.076923     16.000000
  0.384615  0.384615  0.076923      8.000000
  0.461538  0.384615  0.076923     16.000000
  0.461538  0.461538  0.076923      8.000000
  0.000000  0.000000  0.153846      2.000000
  0.076923  0.000000  0.153846      8.000000
  0.153846  0.000000  0.153846      8.000000
  0.230769  0.000000  0.153846      8.000000
[...]
  0.153846  0.153846  0.461538      8.000000
  0.230769  0.153846  0.461538     16.000000
  0.307692  0.153846  0.461538     16.000000
  0.384615  0.153846  0.461538     16.000000
  0.461538  0.153846  0.461538     16.000000
  0.230769  0.230769  0.461538      8.000000
  0.307692  0.230769  0.461538     16.000000
  0.384615  0.230769  0.461538     16.000000
  0.461538  0.230769  0.461538     16.000000
  0.307692  0.307692  0.461538      8.000000
  0.384615  0.307692  0.461538     16.000000
  0.461538  0.307692  0.461538     16.000000
  0.384615  0.384615  0.461538      8.000000
  0.461538  0.384615  0.461538     16.000000
  0.461538  0.461538  0.461538      8.000000

 Following cartesian coordinates:
            Coordinates               Weight
  0.000000  0.000000  0.000000      1.000000
  0.019530  0.000000  0.000000      4.000000
  0.039059  0.000000  0.000000      4.000000
  0.058589  0.000000  0.000000      4.000000
  0.078119  0.000000  0.000000      4.000000
  0.097649  0.000000  0.000000      4.000000
  0.117178  0.000000  0.000000      4.000000
  0.019530  0.019530  0.000000      4.000000
  0.039059  0.019530  0.000000      8.000000
  0.058589  0.019530  0.000000      8.000000
  0.078119  0.019530  0.000000      8.000000
  0.097649  0.019530  0.000000      8.000000
  0.117178  0.019530  0.000000      8.000000
  0.039059  0.039059  0.000000      4.000000
  0.058589  0.039059  0.000000      8.000000
  0.078119  0.039059  0.000000      8.000000
  0.097649  0.039059  0.000000      8.000000
  0.117178  0.039059  0.000000      8.000000
  0.058589  0.058589  0.000000      4.000000
  0.078119  0.058589  0.000000      8.000000
  0.097649  0.058589  0.000000      8.000000
  0.117178  0.058589  0.000000      8.000000
  0.078119  0.078119  0.000000      4.000000
  0.097649  0.078119  0.000000      8.000000
  0.117178  0.078119  0.000000      8.000000
  0.097649  0.097649  0.000000      4.000000
  0.117178  0.097649  0.000000      8.000000
  0.117178  0.117178  0.000000      4.000000
  0.000000  0.000000  0.019408      2.000000
  0.019530  0.000000  0.019408      8.000000
[...]
  o =  0.9891  v =  0.0000  0.0000  0.0000  0.0000  1.0000  0.0000  0.0000  0.0000  0.0000  0.0000      0.0000  0.0000  0.0000  0.0000  0.0000  0.0000  0.0000  0.0000  0.0000  0.0000

 eigenvalue-minimisations  : 25384
 total energy-change (2. order) : 0.4138553E+03  (-0.2342138E+04)
 number of electron      43.0000000 magnetization       7.4000000
 augmentation part       43.0000000 magnetization       7.4000000

 Free energy of the ion-electron system (eV)
  alpha Z        PSCENC =       305.75530063
  Ewald energy   TEWEN  =     -3385.88922500
  -Hartree energ DENC   =     -1464.54369171
  -exchange      EXHF   =         0.00000000
  -V(xc)+E(xc)   XCENC  =       237.56794893
  PAW double counting   =      3861.73544422    -4101.43316178
  entropy T*S    EENTRO =        -0.00145502
  eigenvalues    EBANDS =        14.60696090
  atomic energy  EATOM  =      4946.05720393
  Solvation  Ediel_sol  =         0.00000000
  free energy    TOTEN  =       413.85532511 eV

  energy without entropy =      413.85678013  energy(sigma->0) =      413.85605262

[...]

 eigenvalue-minimisations  : 25944
 total energy-change (2. order) :-0.4785599E+03  (-0.4426517E+03)
 number of electron      43.0000000 magnetization       7.4000000
 augmentation part       43.0000000 magnetization       7.4000000

[...]

 Broyden mixing:
  rms(total) = 0.32610E+01    rms(broyden)= 0.32609E+01
  rms(prec ) = 0.64767E+01
  weight for this iteration     100.00

[...]

 eigenvalues of (default mixing * dielectric matrix)
  average eigenvalue GAMMA=   0.1761
  0.1761

[...]

 average (electrostatic) potential at core
  the test charge radii are     1.2192  0.9804  0.7215
  (the norm of the test charge is              1.0000)
       1 -38.3919       2 -77.1272       3 -74.3655       4 -74.3961       5 -74.3961

 E-fermi :   3.4211     XC(G=0): -12.1838     alpha+bet :-13.4972

[...]

 k-point     1 :       0.0000    0.0000    0.0000
  band No.  band energies     occupation
      1     -61.5426      1.00000
      2     -61.5275      1.00000
      3     -61.5275      1.00000
      4     -22.3778      1.00000
      5     -15.7075      1.00000
      6     -14.8328      1.00000
      7     -14.8172      1.00000
      8      -7.0960      1.00000
      9      -7.0718      1.00000
     10      -7.0718      1.00000
     11      -2.9861      1.00000
     12      -2.9861      1.00000
     13      -2.9592      1.00000
     14      -2.2792      1.00000
     15      -2.2394      1.00000
     16      -0.5692      1.00000
     17      -0.5692      1.00000
     18      -0.5499      1.00000
     19       1.4164      1.00000
     20       1.4281      1.00000
     21       1.4281      1.00000
     22       2.4334      1.00000
     23       2.4334      1.00000
     24       2.4359      1.00000
     25       8.7385      0.00000
     26       8.8098      0.00000
     27      10.5332      0.00000
     28      11.9117      0.00000
     29      11.9117      0.00000
     30      11.9676      0.00000
     31      14.3288      0.00000
     32      20.6567      0.00000

[...]

 soft charge-density along one line, spin component           1
         0         1         2         3         4         5         6         7         8         9
 total charge-density along one line

[...]

------------------------ aborting loop because EDIFF is reached ----------------------------------------

 total charge

# of ion       s       p       d       tot
    1        2.011   5.656   0.312   7.979
    2        0.408   6.528   6.883  13.819
    3        1.578   3.425   0.000   5.003
    4        1.581   3.254   0.000   4.835
    5        1.575   3.597   0.000   5.172
tot          7.153  22.460   7.195  36.808

 magnetization (x)

[...]

  FORCE on cell =-STRESS in cart. coord.  units (eV):
  Direction    XX          YY          ZZ          XY          YZ          ZX
  Alpha Z   305.75530   305.75530   305.75530
  Ewald   -1123.77011 -1123.77011 -1138.35191    -0.00000    -0.00000    -0.00000
  Hartree   473.28977   473.28977   463.25462    -0.00000    -0.00000    -0.00000
  E(xc)    -236.99083  -236.61758  -236.80699    -0.04720    -0.05343    -0.04373
  Local    -117.66345  -117.66345   -93.12276    -0.00000    -0.00000    -0.00000
  n-local  -131.41692  -130.10748  -130.83804    -0.66836    -0.54348    -0.68600
  augment   173.29097   173.29097   173.37037    -0.00000     0.00000     0.00000
  Kinetic   650.59358   662.89391   656.81031    -1.67038    -1.88759    -1.53483
  Fock        0.00000     0.00000     0.00000     0.00000     0.00000     0.00000
  Total       0.07981     0.07981     0.07090     0.00000     0.00000     0.00000
  in kB       2.07968     2.07968     1.84747     0.00000     0.00000     0.00000

 VOLUME and BASIS-vectors are now :
  energy-cutoff  :      520.00
  volume of cell :       61.49
      direct lattice vectors                 reciprocal lattice vectors
     3.938766112  0.000000000  0.000000000     0.253886616  0.000000000  0.000000000
     0.000000000  3.938766112  0.000000000     0.000000000  0.253886616  0.000000000
     0.000000000  0.000000000  3.963464816     0.000000000  0.000000000  0.252304498

[...]

 FORCES acting on ions
    electron-ion (+dipol)            ewald-force                    non-local-force                 convergence-correction
   0.293E-14 -.112E-13 0.412E+01   -.448E-14 0.127E-13 -.423E+01   0.000E+00 0.217E-18 0.715E-01   -.185E-13 0.299E-13 -.656E-04
   0.646E-12 0.489E-11 -.230E+02   0.185E-13 -.317E-14 0.215E+02   0.000E+00 0.000E+00 0.146E+01   0.347E-12 -.122E-12 0.721E-03
   0.135E-12 0.140E-11 0.311E+02   -.120E-14 -.588E-14 -.332E+02   0.000E+00 0.000E+00 0.208E+01   0.968E-13 -.852E-13 -.226E-03
   0.204E-13 0.159E-12 -.770E+01   -.168E-13 -.812E-15 0.797E+01   0.000E+00 0.000E+00 -.277E+00   -.852E-14 -.554E-13 0.126E-03
   0.142E-12 -.361E-13 -.770E+01   0.427E-14 -.243E-14 0.797E+01   0.000E+00 -.434E-18 -.277E+00   0.732E-13 0.222E-12 0.126E-03
   0.948E-12 0.639E-11 -.319E+01   0.365E-15 0.361E-15 0.444E-14   0.000E+00 -.217E-18 0.305E+01   0.490E-12 -.106E-13 0.681E-03

 POSITION                                       TOTAL-FORCE (eV/Angst)
      0.00000      0.00000      0.03518        -0.000000     -0.000000     -0.016328
      1.96938      1.96938      1.98866        -0.000000     -0.000000      0.013714
      1.96938      1.96938      0.05241         0.000000      0.000000     -0.032847
      0.00000      1.96938      2.02147        -0.000000     -0.000000      0.017730
      1.96938      0.00000      2.02147        -0.000000     -0.000000      0.017730
    total drift:                                0.000000      0.000000     -0.136522

  FREE ENERGIE OF THE ION-ELECTRON SYSTEM (eV)
  free  energy   TOTEN  =       -82.66067780 eV

  energy  without entropy=      -82.65836291  energy(sigma->0) =      -82.65952035

 real space projection operators:
  max/ min on nodes  :        452.33        449.28

[...]

 eigenvalue-minimisations  : 30224
 total energy-change (2. order) : 0.3551002E-04  (-0.2920071E-05)
 number of electron      43.0000000 magnetization       4.1761947
 augmentation part        9.9742011 magnetization       2.8358140

 Broyden mixing:
  rms(total) = 0.30942E-02    rms(broyden)= 0.30935E-02
  rms(prec ) = 0.50818E-02
  weight for this iteration     100.00

 eigenvalues of (default mixing * dielectric matrix)
  average eigenvalue GAMMA=   0.8495
  1.5549  1.0104  1.0104  0.4472  0.4472  0.6272

[...]

--------------------------------------- Iteration      2(   8)  ---------------------------------------

atom =   2  type =  2  l = 2

 onsite density matrix

[...]

  0.4447 -0.0000  0.0000  0.0000  0.0000
 -0.0000  0.4299  0.0000  0.0000  0.0000
  0.0000  0.0000  0.3341  0.0000  0.0000
  0.0000  0.0000  0.0000  0.4299  0.0000
  0.0000  0.0000  0.0000  0.0000  0.3318

 occupancies and eigenvectors

  o =  0.3318  v =  0.0000  0.0000  0.0000  0.0000  0.0000  0.0000  0.0000 -0.0000 -0.0000  1.0000      0.0000  0.0000  0.0000  0.0000  0.0000  0.0000  0.0000  0.0000  0.0000  0.0000
  o =  0.3341  v =  0.0000  0.0000  0.0000  0.0000  0.0000  0.0000  0.0000  1.0000 -0.0000  0.0000      0.0000  0.0000  0.0000  0.0000  0.0000  0.0000  0.0000  0.0000  0.0000  0.0000
  o =  0.4299  v =  0.0000  0.0000  0.0000  0.0000  0.0000  0.0000 -0.6015  0.0000 -0.7989  0.0000      0.0000  0.0000  0.0000  0.0000  0.0000  0.0000  0.0000  0.0000  0.0000  0.0000
  o =  0.4299  v =  0.0000  0.0000  0.0000  0.0000  0.0000  0.0000 -0.7989  0.0000  0.6015  0.0000      0.0000  0.0000  0.0000  0.0000  0.0000  0.0000  0.0000  0.0000  0.0000  0.0000
  o =  0.4447  v =  0.0000  0.0000  0.0000  0.0000  0.0000  1.0000  0.0000  0.0000  0.0000  0.0000      0.0000  0.0000  0.0000  0.0000  0.0000  0.0000  0.0000  0.0000  0.0000  0.0000
  o =  0.9865  v =  0.0000  0.5563  0.0000 -0.8310 -0.0000  0.0000  0.0000  0.0000  0.0000  0.0000      0.0000  0.0000  0.0000  0.0000  0.0000  0.0000  0.0000  0.0000  0.0000  0.0000
  o =  0.9865  v =  0.0000 -0.8310  0.0000 -0.5563  0.0000  0.0000  0.0000  0.0000  0.0000  0.0000      0.0000  0.0000  0.0000  0.0000  0.0000  0.0000  0.0000  0.0000  0.0000  0.0000
  o =  0.9866  v =  1.0000  0.0000  0.0000  0.0000  0.0000  0.0000  0.0000  0.0000  0.0000  0.0000      0.0000  0.0000  0.0000  0.0000  0.0000  0.0000  0.0000  0.0000  0.0000  0.0000
  o =  0.9889  v =  0.0000  0.0000  0.0000 -0.0000  1.0000  0.0000  0.0000  0.0000  0.0000  0.0000      0.0000  0.0000  0.0000  0.0000  0.0000  0.0000  0.0000  0.0000  0.0000  0.0000
  o =  0.9912  v =  0.0000 -0.0000  1.0000  0.0000 -0.0000  0.0000  0.0000  0.0000  0.0000  0.0000      0.0000  0.0000  0.0000  0.0000  0.0000  0.0000  0.0000  0.0000  0.0000  0.0000

 eigenvalue-minimisations  : 16576
 total energy-change (2. order) :-0.6387812E-05  (-0.3164620E-06)
 number of electron      43.0000000 magnetization       4.1761947
 augmentation part        9.9742011 magnetization       2.8358140

 Free energy of the ion-electron system (eV)
  alpha Z        PSCENC =       305.07621909
  Ewald energy   TEWEN  =     -3383.46262631
  -Hartree energ DENC   =     -1410.86181912
  -exchange      EXHF   =         0.00000000
  -V(xc)+E(xc)   XCENC  =       239.47825563
  PAW double counting   =      5009.28732087    -5258.70620830
  entropy T*S    EENTRO =        -0.00250718
  eigenvalues    EBANDS =      -529.52673101
  atomic energy  EATOM  =      4946.05720393
  Solvation  Ediel_sol  =         0.00000000
  free energy    TOTEN  =       -82.66089240 eV

  energy without entropy =      -82.65838522  energy(sigma->0) =      -82.65963881

 average (electrostatic) potential at core
  the test charge radii are     1.2192  0.9804  0.7215
  (the norm of the test charge is              1.0000)
       1 -38.4194       2 -77.1462       3 -74.3811       4 -74.4147       5 -74.4147

 E-fermi :   3.4009     XC(G=0): -12.1709     alpha+bet :-13.4672

[...]

 spin component 2

[...]

 k-point   196 :       0.4615    0.4615    0.4615
  band No.  band energies     occupation
      1     -56.8638      1.00000
      2     -56.8623      1.00000
      3     -56.8623      1.00000
      4     -22.0280      1.00000
      5     -14.2277      1.00000
      6     -14.1998      1.00000
      7     -14.1776      1.00000
      8      -7.7635      1.00000
      9      -7.7511      1.00000
     10      -7.7158      1.00000
     11      -2.9072      1.00000
     12      -0.7572      1.00000
     13      -0.7232      1.00000
     14       0.4946      1.00000
     15       0.5667      1.00000
     16       0.5909      1.00000
     17       3.3684      0.82125
     18       3.3822      0.70229
     19       3.4148      0.34784
     20       4.3912      0.00000
     21       4.4300      0.00000
     22       4.4367      0.00000
     23       7.6840      0.00000
     24       7.7705      0.00000
     25      10.7750      0.00000
     26      10.7880      0.00000
     27      10.8129      0.00000
     28      14.2307      0.00000
     29      14.2968      0.00000
     30      17.4622      0.00000
     31      18.7337      0.00000
     32      19.4003      0.00000

[...]

 soft charge-density along one line, spin component           2
         0         1         2         3         4         5         6         7         8         9
 total charge-density along one line

------------------------ aborting loop because EDIFF is reached ----------------------------------------

[...]

  FORCE on cell =-STRESS in cart. coord.  units (eV):
  Direction    XX          YY          ZZ          XY          YZ          ZX
  Alpha Z   305.07622   305.07622   305.07622
  Ewald   -1123.03732 -1123.03732 -1137.39088     0.00000    -0.00000     0.00000
  Hartree   473.52544   473.52544   463.70228    -0.00000    -0.00000    -0.00000
  E(xc)    -236.96232  -236.59289  -236.77901    -0.04718    -0.05334    -0.04426
  Local    -117.98164  -117.98164   -93.87851     0.00000     0.00000     0.00000
  n-local  -131.48872  -130.17723  -130.90917    -0.66510    -0.54248    -0.67892
  augment   173.28276   173.28276   173.37718    -0.00000     0.00000     0.00000
  Kinetic   650.53183   662.71455   656.69110    -1.66970    -1.88577    -1.55058
  Fock        0.00000     0.00000     0.00000     0.00000     0.00000     0.00000
  Total      -0.12193    -0.12193    -0.11078     0.00000     0.00000     0.00000
  in kB      -3.17010    -3.17010    -2.88012     0.00000     0.00000     0.00000

 VOLUME and BASIS-vectors are now :
  energy-cutoff  :      520.00
  volume of cell :       61.63
      direct lattice vectors                 reciprocal lattice vectors
     3.941799329  0.000000000  0.000000000     0.253691250  0.000000000  0.000000000
     0.000000000  3.941799329  0.000000000     0.000000000  0.253691250 -0.000000000
     0.000000000  0.000000000  3.966176248     0.000000000 -0.000000000  0.252132013

  length of vectors
     3.941799329  3.941799329  3.966176248     0.253691250  0.253691250  0.252132013

 FORCES acting on ions
    electron-ion (+dipol)            ewald-force                    non-local-force                 convergence-correction
   0.100E-14 -.978E-14 0.345E+01   -.802E-14 0.139E-13 -.356E+01   0.000E+00 0.572E-20 0.855E-01   -.323E-13 -.107E-13 0.209E-03
   0.617E-12 0.635E-11 -.210E+02   -.361E-14 -.295E-13 0.196E+02   0.000E+00 0.948E-19 0.142E+01   0.514E-12 -.516E-12 -.136E-02
   0.129E-12 0.207E-11 0.292E+02   0.695E-14 -.653E-14 -.313E+02   0.000E+00 0.187E-17 0.200E+01   0.109E-12 0.119E-12 0.321E-02
   0.197E-13 0.201E-12 -.735E+01   0.149E-13 -.597E-14 0.762E+01   0.000E+00 -.141E-18 -.293E+00   -.517E-13 -.908E-13 -.127E-02
   0.139E-12 -.288E-13 -.735E+01   -.932E-14 0.267E-13 0.762E+01   0.217E-18 -.440E-18 -.293E+00   0.112E-12 0.385E-12 -.127E-02
   0.906E-12 0.858E-11 -.301E+01   0.895E-15 -.134E-14 0.355E-14   0.217E-18 0.139E-17 0.291E+01   0.652E-12 -.114E-12 -.473E-03

 POSITION                                       TOTAL-FORCE (eV/Angst)
     -0.00000      0.00000      0.03442        -0.000000     -0.000000     -0.015527
      1.97090      1.97090      1.99069         0.000000      0.000000      0.029703
      1.97090      1.97090      0.05086         0.000000     -0.000000     -0.015669
     -0.00000      1.97090      2.02371         0.000000      0.000000      0.000747
      1.97090      0.00000      2.02371         0.000000      0.000000      0.000747
    total drift:                                0.000000      0.000000     -0.101126

  FREE ENERGIE OF THE ION-ELECTRON SYSTEM (eV)
  free  energy   TOTEN  =       -82.66089240 eV

  energy  without entropy=      -82.65838522  energy(sigma->0) =      -82.65963881

 d Force = 0.8120702E-04[ 0.580E-04, 0.104E-03]  d Energy = 0.2146070E-03-0.133E-03
 d Force = 0.8117388E-01[ 0.784E-01, 0.839E-01]  d Ewald  =-0.2426599E+01 0.251E+01

 Steepest descent step on ions:
 trial-energy change:   -0.000215  1 .order   -0.000035   -0.000276    0.000206
  (g-gl).g = 0.276E-03      g.g   = 0.276E-03  gl.gl    = 0.000E+00
 g(Force)  = 0.104E-03   g(Stress)= 0.171E-03 ortho     = 0.000E+00
 gamma     =   0.00000
 trial     =   1.00000
 opt step  =   0.85319  (harmonic =   0.57287) maximal distance =0.00072977
 next E    =   -82.660907   (d E  =  -0.00023)

 reached required accuracy - stopping structural energy minimisation

 total charge

[...]

 magnetization (x)

# of ion       s       p       d       tot
    1        0.001   0.020  -0.004   0.017
    2        0.016   0.030   2.972   3.018
    3        0.015   0.317   0.000   0.332
    4        0.009   0.424   0.000   0.433
    5        0.022   0.208   0.000   0.230
tot          0.064   0.998   2.968   4.030